Route #1: 6 33 63 23 56 24 49 16
Route #2: 62 22 64 42 41 43 1 73 51
Route #3: 75 68 2 28 61 21 74
Route #4: 29 5 37 20 70 60 71 69 36 47
Route #5: 46 8 54 13 57 15 48 30
Route #6: 67 34 52 27 45 4
Route #7: 7 35 19 59 14 53 26
Route #8: 11 66 65 38 58
Route #9: 10 31 25 55 18 50 40
Route #10: 17 3 44 32 9 39 72 12
Cost 833
Time 0.227823
